(set-logic HORN)
(set-info :source |
    Benchmark: C_VC
    Output by Princess (http://www.philipp.ruemmer.org/princess.shtml)
|)
(set-info :status unknown)
(declare-fun inv_main106 (Int Int) Bool)
(declare-fun inv_main123 (Int Int Int Int Int Int Int Int Int Int) Bool)
(declare-fun inv_main128 (Int Int Int Int Int Int Int Int Int Int Int) Bool)
(declare-fun inv_main146 (Int Int Int Int Int Int Int Int Int Int) Bool)
(declare-fun inv_main167 (Int Int Int Int Int Int) Bool)
(declare-fun inv_main189 (Int Int Int Int Int Int Int) Bool)
(declare-fun inv_main203 (Int Int Int Int Int Int) Bool)
(declare-fun inv_main206 (Int Int Int Int Int Int Int) Bool)
(declare-fun inv_main286 (Int Int Int Int Int Int Int) Bool)
(declare-fun inv_main289 (Int Int Int Int Int Int Int Int) Bool)
(declare-fun inv_main321 (Int Int Int Int Int Int Int Int Int Int) Bool)
(declare-fun inv_main329 (Int Int Int Int Int Int Int Int Int Int) Bool)
(declare-fun inv_main339 (Int Int Int Int Int Int Int Int Int Int Int) Bool)
(declare-fun inv_main353 (Int Int Int Int Int Int Int Int Int Int) Bool)
(declare-fun inv_main356 (Int Int Int Int Int Int Int Int Int Int Int) Bool)
(declare-fun inv_main376 (Int Int Int Int Int Int Int Int Int Int) Bool)
(declare-fun inv_main384 (Int Int Int Int Int Int Int Int Int Int) Bool)
(declare-fun inv_main388 (Int Int Int Int Int Int Int Int Int Int) Bool)
(declare-fun inv_main392 (Int Int Int Int Int Int Int Int Int Int Int) Bool)
(declare-fun inv_main407 (Int Int Int Int Int Int Int Int Int Int) Bool)
(declare-fun inv_main422 (Int Int Int Int Int Int Int Int Int Int) Bool)
(declare-fun inv_main436 (Int Int Int Int Int Int Int Int Int) Bool)
(declare-fun inv_main439 (Int Int Int Int Int Int Int Int Int Int) Bool)
(declare-fun inv_main459 (Int Int Int Int Int Int Int Int Int) Bool)
(declare-fun inv_main467 (Int Int Int Int Int Int Int Int Int) Bool)
(declare-fun inv_main78 (Int Int Int) Bool)
(declare-fun inv_main98 (Int Int) Bool)
(assert (forall ((var0 Int) (var1 Int) (var2 Int) (var3 Int) (var4 Int) (var5 Int) (var6 Int) (var7 Int) (var8 Int) (var9 Int) (var10 Int)) (or (not (and (inv_main128 1 var2 0 var0 var3 var1 var8 var5 var10 var6 var7) (and (and (and (not (= var10 (+ var6 1))) (not (= var4 0))) (not (= var7 0))) (= var9 1)))) (inv_main167 var9 var2 var0 var3 var1 var8))))
(assert (forall ((var0 Int) (var1 Int) (var2 Int) (var3 Int) (var4 Int) (var5 Int) (var6 Int)) (or (not (and (inv_main189 var2 var0 var3 var1 var4 var6 var5) (not (= var5 0)))) (inv_main203 var2 var0 var3 var1 var4 var6))))
(assert (forall ((var0 Int) (var1 Int) (var2 Int) (var3 Int) (var4 Int) (var5 Int)) (or (not (inv_main189 var2 var0 var3 var1 var4 var5 0)) (inv_main203 var2 var0 var3 var1 var4 var5))))
(assert (forall ((var0 Int) (var1 Int) (var2 Int) (var3 Int) (var4 Int) (var5 Int) (var6 Int)) (or (not (and (inv_main203 1 var0 var3 var2 var4 var6) (and (= var1 1) (= 1 var5)))) (inv_main206 var1 var0 var3 var2 var4 var6 var5))))
(assert (forall ((var0 Int) (var1 Int) (var2 Int) (var3 Int) (var4 Int) (var5 Int) (var6 Int)) (or (not (and (inv_main203 var2 var0 var3 var1 var4 var6) (and (not (= var2 1)) (= 0 var5)))) (inv_main206 var2 var0 var3 var1 var4 var6 var5))))
(assert (forall ((var0 Int) (var1 Int) (var2 Int) (var3 Int) (var4 Int) (var5 Int) (var6 Int) (var7 Int)) (or (not (and (inv_main286 var5 var6 var2 var1 1 var7 var4) (and (= var3 1) (= 1 var0)))) (inv_main289 var5 var6 var2 var1 var3 var7 var4 var0))))
(assert (forall ((var0 Int) (var1 Int) (var2 Int) (var3 Int) (var4 Int) (var5 Int) (var6 Int) (var7 Int)) (or (not (and (inv_main286 var5 var6 var1 var0 var2 var7 var3) (and (not (= var2 1)) (= 0 var4)))) (inv_main289 var5 var6 var1 var0 var2 var7 var3 var4))))
(assert true)
(assert (forall ((var0 Int) (var1 Int) (var2 Int)) (or (not (and (and (= 0 var2) (= var0 0)) (= var1 2))) (inv_main78 var0 var1 var2))))
(assert true)
(assert (forall ((var0 Int) (var1 Int) (var2 Int) (var3 Int) (var4 Int) (var5 Int) (var6 Int)) (or (not (and (inv_main167 1 var4 var0 var5 var3 1) (and (= var6 1) (= 1 var1)))) (inv_main189 var4 var0 var5 var3 var6 var2 var1))))
(assert (forall ((var0 Int) (var1 Int) (var2 Int) (var3 Int) (var4 Int) (var5 Int) (var6 Int) (var7 Int)) (or (not (and (inv_main167 var7 var4 var0 var5 var3 var6) (and (not (= var7 1)) (= 0 var2)))) (inv_main189 var4 var0 var5 var3 var6 var1 var2))))
(assert (forall ((var0 Int) (var1 Int) (var2 Int) (var3 Int) (var4 Int) (var5 Int) (var6 Int)) (or (not (and (inv_main167 1 var3 var0 var4 var2 var5) (and (not (= var5 1)) (= 0 var6)))) (inv_main189 var3 var0 var4 var2 var5 var1 var6))))
(assert (forall ((var0 Int) (var1 Int) (var2 Int) (var3 Int) (var4 Int) (var5 Int) (var6 Int) (var7 Int) (var8 Int) (var9 Int) (var10 Int) (var11 Int)) (or (not (and (inv_main339 var9 var3 var10 var0 var4 var2 var8 var6 var11 var7 var1) (and (not (= var1 0)) (= 0 var5)))) (inv_main353 var9 var3 var5 var0 var4 var2 var8 var6 var11 var7))))
(assert (forall ((var0 Int) (var1 Int) (var2 Int) (var3 Int) (var4 Int) (var5 Int) (var6 Int) (var7 Int) (var8 Int) (var9 Int)) (or (not (inv_main339 var7 var2 var8 var0 var3 var1 var6 var4 var9 var5 0)) (inv_main353 var7 var2 var8 var0 var3 var1 var6 var4 var9 var5))))
(assert (forall ((var0 Int) (var1 Int) (var2 Int) (var3 Int) (var4 Int) (var5 Int) (var6 Int) (var7 Int) (var8 Int) (var9 Int) (var10 Int)) (or (not (and (inv_main353 var8 1 var9 var0 var4 var3 var7 1 var10 var6) (and (and (= var5 1) (= var2 1)) (= 1 var1)))) (inv_main356 var8 var2 var9 var0 var4 var3 var7 var5 var10 var6 var1))))
(assert (forall ((var0 Int) (var1 Int) (var2 Int) (var3 Int) (var4 Int) (var5 Int) (var6 Int) (var7 Int) (var8 Int) (var9 Int) (var10 Int)) (or (not (and (inv_main353 var8 var3 var9 var0 var4 var2 var7 var5 var10 var6) (and (not (= var3 1)) (= 0 var1)))) (inv_main356 var8 var3 var9 var0 var4 var2 var7 var5 var10 var6 var1))))
(assert (forall ((var0 Int) (var1 Int) (var2 Int) (var3 Int) (var4 Int) (var5 Int) (var6 Int) (var7 Int) (var8 Int) (var9 Int) (var10 Int)) (or (not (and (inv_main353 var8 1 var9 var0 var4 var3 var7 var5 var10 var6) (and (and (not (= var5 1)) (= var2 1)) (= 0 var1)))) (inv_main356 var8 var2 var9 var0 var4 var3 var7 var5 var10 var6 var1))))
(assert (forall ((var0 Int) (var1 Int) (var2 Int) (var3 Int) (var4 Int) (var5 Int) (var6 Int) (var7 Int) (var8 Int) (var9 Int) (var10 Int)) (or (not (and (inv_main422 var7 var1 var8 var0 var2 var6 var3 var10 var4 var5) (and (not (= var5 0)) (= 0 var9)))) (inv_main436 var7 var1 var9 var0 var2 var6 var3 var10 var4))))
(assert (forall ((var0 Int) (var1 Int) (var2 Int) (var3 Int) (var4 Int) (var5 Int) (var6 Int) (var7 Int) (var8 Int)) (or (not (inv_main422 var6 var1 var7 var0 var2 var5 var3 var8 var4 0)) (inv_main436 var6 var1 var7 var0 var2 var5 var3 var8 var4))))
(assert (forall ((var0 Int) (var1 Int) (var2 Int) (var3 Int) (var4 Int) (var5 Int) (var6 Int) (var7 Int) (var8 Int) (var9 Int)) (or (not (and (inv_main436 var6 1 var7 var0 var2 var5 1 var9 var4) (and (and (= var3 1) (= var1 1)) (= 1 var8)))) (inv_main439 var6 var1 var7 var0 var2 var5 var3 var9 var4 var8))))
(assert (forall ((var0 Int) (var1 Int) (var2 Int) (var3 Int) (var4 Int) (var5 Int) (var6 Int) (var7 Int) (var8 Int) (var9 Int)) (or (not (and (inv_main436 var6 var1 var7 var0 var2 var5 var3 var9 var4) (and (not (= var1 1)) (= 0 var8)))) (inv_main439 var6 var1 var7 var0 var2 var5 var3 var9 var4 var8))))
(assert (forall ((var0 Int) (var1 Int) (var2 Int) (var3 Int) (var4 Int) (var5 Int) (var6 Int) (var7 Int) (var8 Int) (var9 Int)) (or (not (and (inv_main436 var7 1 var8 var0 var3 var6 var4 var9 var5) (and (and (not (= var4 1)) (= var2 1)) (= 0 var1)))) (inv_main439 var7 var2 var8 var0 var3 var6 var4 var9 var5 var1))))
(assert (forall ((var0 Int) (var1 Int) (var2 Int) (var3 Int) (var4 Int) (var5 Int) (var6 Int) (var7 Int) (var8 Int) (var9 Int) (var10 Int) (var11 Int)) (or (not (and (inv_main206 var3 var0 var4 var2 var6 var10 var1) (and (and (and (and (and (not (= var1 0)) (= 1 var7)) (= 2 var8)) (= 0 var11)) (= 2 var9)) (= var5 var10)))) (inv_main146 var7 var3 var8 var11 var4 var2 var6 var9 var10 var5))))
(assert (forall ((var0 Int) (var1 Int) (var2 Int) (var3 Int) (var4 Int) (var5 Int) (var6 Int) (var7 Int) (var8 Int) (var9 Int)) (or (not (and (inv_main206 var2 var0 var3 var1 var5 var8 0) (and (and (and (= 1 var9) (= 2 var6)) (= 2 var7)) (= var4 var8)))) (inv_main146 var9 var2 var6 var0 var3 var1 var5 var7 var8 var4))))
(assert (forall ((var0 Int) (var1 Int) (var2 Int) (var3 Int) (var4 Int) (var5 Int) (var6 Int) (var7 Int) (var8 Int) (var9 Int) (var10 Int)) (or (not (and (inv_main289 var6 var7 var3 var2 var4 var9 var5 var8) (and (and (and (not (= var8 0)) (= 1 var10)) (= 2 var0)) (= 2 var1)))) (inv_main123 var6 var10 var7 var0 var3 var2 var1 var4 var9 var5))))
(assert (forall ((var0 Int) (var1 Int) (var2 Int) (var3 Int) (var4 Int) (var5 Int) (var6 Int) (var7 Int) (var8 Int) (var9 Int)) (or (not (and (inv_main289 var6 var8 var1 var0 var2 var9 var3 0) (and (and (= 1 var4) (= 2 var5)) (= 2 var7)))) (inv_main123 var6 var4 var8 var5 var1 var0 var7 var2 var9 var3))))
(assert (forall ((var0 Int) (var1 Int) (var2 Int) (var3 Int) (var4 Int) (var5 Int) (var6 Int) (var7 Int) (var8 Int) (var9 Int) (var10 Int)) (or (not (and (inv_main123 var8 var2 0 var0 var3 var1 var7 var4 var10 var5) (and (= var9 0) (= 1 var6)))) (inv_main128 var8 var2 var9 var0 var3 var1 var7 var4 var10 var5 var6))))
(assert (forall ((var0 Int) (var1 Int) (var2 Int) (var3 Int) (var4 Int) (var5 Int) (var6 Int) (var7 Int) (var8 Int) (var9 Int) (var10 Int)) (or (not (and (inv_main123 var8 var2 var9 0 var3 var1 var6 var4 var10 var5) (and (and (not (= var9 0)) (= var0 0)) (= 1 var7)))) (inv_main128 var8 var2 var9 var0 var3 var1 var6 var4 var10 var5 var7))))
(assert (forall ((var0 Int) (var1 Int) (var2 Int) (var3 Int) (var4 Int) (var5 Int) (var6 Int) (var7 Int) (var8 Int) (var9 Int) (var10 Int)) (or (not (and (inv_main123 var7 var2 var8 var0 var3 var1 var6 var4 var10 var5) (and (and (not (= var0 0)) (not (= var8 0))) (= 0 var9)))) (inv_main128 var7 var2 var8 var0 var3 var1 var6 var4 var10 var5 var9))))
(assert (forall ((var0 Int) (var1 Int) (var2 Int) (var3 Int) (var4 Int) (var5 Int) (var6 Int) (var7 Int) (var8 Int) (var9 Int) (var10 Int)) (or (not (and (inv_main128 var8 var2 0 var0 var3 var1 var7 var4 var10 var5 var6) (and (not (= var6 0)) (= var9 0)))) (inv_main146 var8 var2 var9 var0 var3 var1 var7 var4 var10 var5))))
(assert (forall ((var0 Int) (var1 Int) (var2 Int) (var3 Int) (var4 Int) (var5 Int) (var6 Int) (var7 Int) (var8 Int) (var9 Int)) (or (not (and (inv_main128 1 var2 0 var0 var3 var1 var7 var4 (+ var5 1) var5 var6) (and (and (not (= var9 0)) (not (= var6 0))) (= var8 1)))) (inv_main167 var8 var2 var0 var3 var1 var7))))
(assert (forall ((var0 Int) (var1 Int) (var2 Int) (var3 Int) (var4 Int) (var5 Int) (var6 Int) (var7 Int) (var8 Int) (var9 Int) (var10 Int)) (or (not (and (inv_main128 0 var2 0 var0 var3 var1 var8 var5 var10 var6 var7) (and (and (not (= var4 0)) (not (= var7 0))) (= var9 0)))) (inv_main167 var9 var2 var0 var3 var1 var8))))
(assert (forall ((var0 Int) (var1 Int) (var2 Int) (var3 Int) (var4 Int) (var5 Int) (var6 Int) (var7 Int) (var8 Int) (var9 Int) (var10 Int)) (or (not (and (inv_main128 var8 var2 0 var0 var3 var1 var7 var4 var10 var5 var6) (and (and (and (not (= var8 1)) (not (= var8 0))) (not (= var9 0))) (not (= var6 0))))) (inv_main167 var8 var2 var0 var3 var1 var7))))
(assert (forall ((var0 Int) (var1 Int) (var2 Int) (var3 Int) (var4 Int) (var5 Int) (var6 Int) (var7 Int) (var8 Int) (var9 Int) (var10 Int)) (or (not (and (inv_main128 var8 var2 var9 var0 var3 var1 var7 var4 var10 var5 var6) (and (not (= var9 0)) (not (= var6 0))))) (inv_main146 var8 var2 var9 var0 var3 var1 var7 var4 var10 var5))))
(assert (forall ((var0 Int) (var1 Int) (var2 Int) (var3 Int) (var4 Int) (var5 Int) (var6 Int) (var7 Int) (var8 Int) (var9 Int)) (or (not (and (inv_main146 var7 var2 var8 0 var3 var1 var6 var4 var9 var5) (= var0 0))) (inv_main123 var7 var2 var8 var0 var3 var1 var6 var4 var9 var5))))
(assert (forall ((var0 Int) (var1 Int) (var2 Int) (var3 Int) (var4 Int) (var5 Int) (var6 Int) (var7 Int) (var8 Int) (var9 Int) (var10 Int)) (or (not (and (inv_main146 1 1 var7 0 var1 var0 var4 var2 var9 var3) (and (and (and (not (= var10 0)) (= var5 1)) (= 0 var8)) (= (+ var9 1) var6)))) (inv_main286 var5 var8 var1 var0 var2 var6 var3))))
(assert (forall ((var0 Int) (var1 Int) (var2 Int) (var3 Int) (var4 Int) (var5 Int) (var6 Int) (var7 Int) (var8 Int) (var9 Int)) (or (not (and (inv_main146 var6 1 var7 0 var2 var1 var5 var3 var9 var4) (and (and (not (= var6 1)) (not (= var0 0))) (= (+ var9 1) var8)))) (inv_main286 var6 var7 var2 var1 var3 var8 var4))))
(assert (forall ((var0 Int) (var1 Int) (var2 Int) (var3 Int) (var4 Int) (var5 Int) (var6 Int) (var7 Int) (var8 Int) (var9 Int) (var10 Int)) (or (not (and (inv_main146 var7 0 var8 0 var1 var0 var6 var3 var10 var4) (and (and (not (= var9 0)) (= 1 var5)) (= 2 var2)))) (inv_main123 var7 var5 var8 var2 var1 var0 var6 var3 var10 var4))))
(assert (forall ((var0 Int) (var1 Int) (var2 Int) (var3 Int) (var4 Int) (var5 Int) (var6 Int) (var7 Int) (var8 Int) (var9 Int) (var10 Int) (var11 Int)) (or (not (and (inv_main146 var8 var3 var9 0 var4 var2 var7 var5 var11 var6) (and (and (and (and (not (= var3 1)) (not (= var3 0))) (not (= var10 0))) (= 1 var1)) (= 2 var0)))) (inv_main123 var8 var1 var9 var0 var4 var2 var7 var5 var11 var6))))
(assert (forall ((var0 Int) (var1 Int) (var2 Int) (var3 Int) (var4 Int) (var5 Int) (var6 Int) (var7 Int) (var8 Int) (var9 Int)) (or (not (and (inv_main146 var7 var2 var8 var0 var3 var1 var6 var4 var9 var5) (not (= var0 0)))) (inv_main123 var7 var2 var8 var0 var3 var1 var6 var4 var9 var5))))
(assert true)
(assert true)
(assert (forall ((var0 Int) (var1 Int) (var2 Int)) (or (not (and (inv_main78 var0 var2 var1) (not (= var1 0)))) (inv_main98 var0 var2))))
(assert (forall ((var0 Int) (var1 Int)) (or (not (inv_main78 var0 var1 0)) (inv_main98 var0 var1))))
(assert (forall ((var0 Int) (var1 Int) (var2 Int) (var3 Int) (var4 Int) (var5 Int) (var6 Int) (var7 Int) (var8 Int) (var9 Int) (var10 Int)) (or (not (and (inv_main329 1 var2 var9 var0 var3 var1 1 var4 var10 var5) (and (and (= var6 1) (= var8 1)) (= 1 var7)))) (inv_main339 var8 var2 var9 var0 var3 var1 var6 var4 var10 var5 var7))))
(assert (forall ((var0 Int) (var1 Int) (var2 Int) (var3 Int) (var4 Int) (var5 Int) (var6 Int) (var7 Int) (var8 Int) (var9 Int) (var10 Int)) (or (not (and (inv_main329 var7 var2 var8 var0 var3 var1 var6 var4 var10 var5) (and (not (= var7 1)) (= 0 var9)))) (inv_main339 var7 var2 var8 var0 var3 var1 var6 var4 var10 var5 var9))))
(assert (forall ((var0 Int) (var1 Int) (var2 Int) (var3 Int) (var4 Int) (var5 Int) (var6 Int) (var7 Int) (var8 Int) (var9 Int) (var10 Int)) (or (not (and (inv_main329 1 var3 var9 var0 var4 var2 var7 var5 var10 var6) (and (and (not (= var7 1)) (= var8 1)) (= 0 var1)))) (inv_main339 var8 var3 var9 var0 var4 var2 var7 var5 var10 var6 var1))))
(assert (forall ((var0 Int) (var1 Int) (var2 Int) (var3 Int) (var4 Int) (var5 Int) (var6 Int) (var7 Int) (var8 Int) (var9 Int) (var10 Int) (var11 Int)) (or (not (and (inv_main356 var9 var1 var10 var0 1 var2 var5 var3 var11 var4 var8) (and (and (not (= var8 0)) (= 0 var7)) (= 2 var6)))) (inv_main376 var9 var1 var10 var7 var6 var2 var5 var3 var11 var4))))
(assert (forall ((var0 Int) (var1 Int) (var2 Int) (var3 Int) (var4 Int) (var5 Int) (var6 Int) (var7 Int) (var8 Int) (var9 Int)) (or (not (and (inv_main356 var7 var1 var8 var0 1 var2 var5 var3 var9 var4 0) (= 2 var6))) (inv_main376 var7 var1 var8 var0 var6 var2 var5 var3 var9 var4))))
(assert (forall ((var0 Int) (var1 Int) (var2 Int) (var3 Int) (var4 Int) (var5 Int) (var6 Int) (var7 Int) (var8 Int) (var9 Int) (var10 Int) (var11 Int)) (or (not (and (inv_main356 var8 var2 var9 var0 var3 var1 var6 var4 var10 var5 var7) (and (and (not (= var3 1)) (not (= var7 0))) (= 0 var11)))) (inv_main376 var8 var2 var9 var11 var3 var1 var6 var4 var10 var5))))
(assert (forall ((var0 Int) (var1 Int) (var2 Int) (var3 Int) (var4 Int) (var5 Int) (var6 Int) (var7 Int) (var8 Int) (var9 Int)) (or (not (and (inv_main356 var7 var2 var8 var0 var3 var1 var6 var4 var9 var5 0) (not (= var3 1)))) (inv_main376 var7 var2 var8 var0 var3 var1 var6 var4 var9 var5))))
(assert (forall ((var0 Int) (var1 Int) (var2 Int) (var3 Int) (var4 Int) (var5 Int) (var6 Int) (var7 Int) (var8 Int) (var9 Int)) (or (not (and (inv_main384 var7 var3 var8 var0 var4 var2 var6 1 var9 var5) (= 2 var1))) (inv_main388 var7 var3 var8 var0 var4 var2 var6 var1 var9 var5))))
(assert (forall ((var0 Int) (var1 Int) (var2 Int) (var3 Int) (var4 Int) (var5 Int) (var6 Int) (var7 Int) (var8 Int) (var9 Int)) (or (not (and (inv_main384 var7 var2 var8 var0 var3 var1 var6 var4 var9 var5) (not (= var4 1)))) (inv_main388 var7 var2 var8 var0 var3 var1 var6 var4 var9 var5))))
(assert (forall ((var0 Int) (var1 Int) (var2 Int) (var3 Int) (var4 Int) (var5 Int) (var6 Int) (var7 Int) (var8 Int) (var9 Int) (var10 Int)) (or (not (and (inv_main388 var8 var3 0 var0 var4 var2 var7 var5 var10 var6) (and (= var9 0) (= 1 var1)))) (inv_main392 var8 var3 var9 var0 var4 var2 var7 var5 var10 var6 var1))))
(assert (forall ((var0 Int) (var1 Int) (var2 Int) (var3 Int) (var4 Int) (var5 Int) (var6 Int) (var7 Int) (var8 Int) (var9 Int) (var10 Int)) (or (not (and (inv_main388 var7 var2 var8 0 var3 var1 var6 var4 var10 var5) (and (and (not (= var8 0)) (= var0 0)) (= 1 var9)))) (inv_main392 var7 var2 var8 var0 var3 var1 var6 var4 var10 var5 var9))))
(assert (forall ((var0 Int) (var1 Int) (var2 Int) (var3 Int) (var4 Int) (var5 Int) (var6 Int) (var7 Int) (var8 Int) (var9 Int) (var10 Int)) (or (not (and (inv_main388 var8 var2 var9 var0 var3 var1 var7 var5 var10 var6) (and (and (not (= var0 0)) (not (= var9 0))) (= 0 var4)))) (inv_main392 var8 var2 var9 var0 var3 var1 var7 var5 var10 var6 var4))))
(assert (forall ((var0 Int) (var1 Int) (var2 Int) (var3 Int) (var4 Int) (var5 Int) (var6 Int) (var7 Int) (var8 Int) (var9 Int) (var10 Int)) (or (not (and (inv_main392 var7 var2 var8 var0 var3 var1 var6 var4 var10 var5 var9) (not (= var9 0)))) (inv_main407 var7 var2 var8 var0 var3 var1 var6 var4 var10 var5))))
(assert (forall ((var0 Int) (var1 Int) (var2 Int) (var3 Int) (var4 Int) (var5 Int) (var6 Int) (var7 Int) (var8 Int) (var9 Int) (var10 Int)) (or (not (and (inv_main392 1 var2 var8 var0 var3 var1 1 var4 var10 var5 0) (and (and (= var6 1) (= var7 1)) (= 1 var9)))) (inv_main422 var7 var2 var8 var0 var1 var6 var4 var10 var5 var9))))
(assert (forall ((var0 Int) (var1 Int) (var2 Int) (var3 Int) (var4 Int) (var5 Int) (var6 Int) (var7 Int) (var8 Int) (var9 Int) (var10 Int)) (or (not (and (inv_main392 var8 var2 var9 var0 var3 var1 var6 var4 var10 var5 0) (and (not (= var8 1)) (= 0 var7)))) (inv_main422 var8 var2 var9 var0 var1 var6 var4 var10 var5 var7))))
(assert (forall ((var0 Int) (var1 Int) (var2 Int) (var3 Int) (var4 Int) (var5 Int) (var6 Int) (var7 Int) (var8 Int) (var9 Int) (var10 Int)) (or (not (and (inv_main392 1 var2 var8 var0 var3 var1 var6 var4 var10 var5 0) (and (and (not (= var6 1)) (= var7 1)) (= 0 var9)))) (inv_main422 var7 var2 var8 var0 var1 var6 var4 var10 var5 var9))))
(assert (forall ((var0 Int) (var1 Int) (var2 Int) (var3 Int) (var4 Int) (var5 Int) (var6 Int) (var7 Int) (var8 Int) (var9 Int) (var10 Int)) (or (not (and (inv_main439 var7 var1 var8 var0 var2 var5 var3 var10 var4 var9) (and (not (= var9 0)) (= 0 var6)))) (inv_main459 var7 var1 var8 var6 var2 var5 var3 var10 var4))))
(assert (forall ((var0 Int) (var1 Int) (var2 Int) (var3 Int) (var4 Int) (var5 Int) (var6 Int) (var7 Int) (var8 Int)) (or (not (inv_main439 var6 var1 var7 var0 var2 var5 var3 var8 var4 0)) (inv_main459 var6 var1 var7 var0 var2 var5 var3 var8 var4))))
(assert true)
(assert true)
(assert true)
(assert (forall ((var0 Int) (var1 Int)) (or (not (inv_main98 var0 var1)) (inv_main106 var0 var1))))
(assert (forall ((var0 Int) (var1 Int) (var2 Int) (var3 Int) (var4 Int) (var5 Int) (var6 Int) (var7 Int) (var8 Int) (var9 Int)) (or (not (and (inv_main106 var2 1) (and (and (and (and (and (and (and (and (= 2 var6) (= var7 0)) (= var8 0)) (= var0 0)) (= var3 2)) (= var1 2)) (= var5 2)) (= var9 0)) (= var4 0)))) (inv_main123 var7 var2 var8 var0 var3 var1 var5 var6 var9 var4))))
(assert (forall ((var0 Int) (var1 Int) (var2 Int) (var3 Int) (var4 Int) (var5 Int) (var6 Int) (var7 Int) (var8 Int) (var9 Int)) (or (not (and (inv_main106 var2 var4) (and (and (and (and (and (and (and (and (not (= var4 1)) (= var7 0)) (= var8 0)) (= var0 0)) (= var3 2)) (= var1 2)) (= var6 2)) (= var9 0)) (= var5 0)))) (inv_main123 var7 var2 var8 var0 var3 var1 var6 var4 var9 var5))))
(assert (forall ((var0 Int) (var1 Int) (var2 Int) (var3 Int) (var4 Int) (var5 Int) (var6 Int) (var7 Int) (var8 Int) (var9 Int)) (or (not (and (inv_main128 var6 var1 var7 var0 0 0 var4 var2 var8 var3 0) (and (= 1 var5) (= 1 var9)))) (inv_main321 var6 var1 var7 var0 var5 var9 var4 var2 var8 var3))))
(assert (forall ((var0 Int) (var1 Int) (var2 Int) (var3 Int) (var4 Int) (var5 Int) (var6 Int) (var7 Int) (var8 Int) (var9 Int)) (or (not (and (inv_main128 var7 var2 var8 var0 0 var3 var6 var4 var9 var5 0) (and (not (= var3 0)) (= 1 var1)))) (inv_main321 var7 var2 var8 var0 var1 var3 var6 var4 var9 var5))))
(assert (forall ((var0 Int) (var1 Int) (var2 Int) (var3 Int) (var4 Int) (var5 Int) (var6 Int) (var7 Int) (var8 Int) (var9 Int)) (or (not (and (inv_main128 var6 var1 var7 var0 var2 0 var5 var3 var9 var4 0) (and (not (= var2 0)) (= 1 var8)))) (inv_main321 var6 var1 var7 var0 var2 var8 var5 var3 var9 var4))))
(assert (forall ((var0 Int) (var1 Int) (var2 Int) (var3 Int) (var4 Int) (var5 Int) (var6 Int) (var7 Int) (var8 Int) (var9 Int)) (or (not (and (inv_main128 var7 var2 var8 var0 var3 var1 var6 var4 var9 var5 0) (and (not (= var1 0)) (not (= var3 0))))) (inv_main321 var7 var2 var8 var0 var3 var1 var6 var4 var9 var5))))
(assert (forall ((var0 Int) (var1 Int) (var2 Int) (var3 Int) (var4 Int) (var5 Int) (var6 Int) (var7 Int) (var8 Int) (var9 Int)) (or (not (and (inv_main321 var6 var2 var7 var0 var3 var1 0 0 var9 var4) (and (= 1 var5) (= 1 var8)))) (inv_main329 var6 var2 var7 var0 var3 var1 var5 var8 var9 var4))))
(assert (forall ((var0 Int) (var1 Int) (var2 Int) (var3 Int) (var4 Int) (var5 Int) (var6 Int) (var7 Int) (var8 Int) (var9 Int)) (or (not (and (inv_main321 var7 var2 var8 var0 var3 var1 0 var4 var9 var5) (and (not (= var4 0)) (= 1 var6)))) (inv_main329 var7 var2 var8 var0 var3 var1 var6 var4 var9 var5))))
(assert (forall ((var0 Int) (var1 Int) (var2 Int) (var3 Int) (var4 Int) (var5 Int) (var6 Int) (var7 Int) (var8 Int) (var9 Int)) (or (not (and (inv_main321 var7 var2 var8 var0 var3 var1 var5 0 var9 var4) (and (not (= var5 0)) (= 1 var6)))) (inv_main329 var7 var2 var8 var0 var3 var1 var5 var6 var9 var4))))
(assert (forall ((var0 Int) (var1 Int) (var2 Int) (var3 Int) (var4 Int) (var5 Int) (var6 Int) (var7 Int) (var8 Int) (var9 Int)) (or (not (and (inv_main321 var7 var2 var8 var0 var3 var1 var6 var4 var9 var5) (and (not (= var4 0)) (not (= var6 0))))) (inv_main329 var7 var2 var8 var0 var3 var1 var6 var4 var9 var5))))
(assert (forall ((var0 Int) (var1 Int) (var2 Int) (var3 Int) (var4 Int) (var5 Int) (var6 Int) (var7 Int) (var8 Int) (var9 Int)) (or (not (and (inv_main376 var7 var1 var8 var0 var2 1 1 var3 var9 var4) (and (= 2 var5) (= 2 var6)))) (inv_main384 var7 var1 var8 var0 var2 var5 var6 var3 var9 var4))))
(assert (forall ((var0 Int) (var1 Int) (var2 Int) (var3 Int) (var4 Int) (var5 Int) (var6 Int) (var7 Int) (var8 Int) (var9 Int)) (or (not (and (inv_main376 var7 var1 var8 var0 var2 1 var5 var3 var9 var4) (and (not (= var5 1)) (= 2 var6)))) (inv_main384 var7 var1 var8 var0 var2 var6 var5 var3 var9 var4))))
(assert (forall ((var0 Int) (var1 Int) (var2 Int) (var3 Int) (var4 Int) (var5 Int) (var6 Int) (var7 Int) (var8 Int) (var9 Int)) (or (not (and (inv_main376 var7 var2 var8 var0 var3 var1 1 var5 var9 var6) (and (not (= var1 1)) (= 2 var4)))) (inv_main384 var7 var2 var8 var0 var3 var1 var4 var5 var9 var6))))
(assert (forall ((var0 Int) (var1 Int) (var2 Int) (var3 Int) (var4 Int) (var5 Int) (var6 Int) (var7 Int) (var8 Int) (var9 Int)) (or (not (and (inv_main376 var7 var2 var8 var0 var3 var1 var6 var4 var9 var5) (and (not (= var6 1)) (not (= var1 1))))) (inv_main384 var7 var2 var8 var0 var3 var1 var6 var4 var9 var5))))
(assert (forall ((var0 Int) (var1 Int) (var2 Int) (var3 Int) (var4 Int) (var5 Int) (var6 Int) (var7 Int) (var8 Int)) (or (not (and (inv_main459 var5 var1 var6 var0 1 1 var2 var7 var3) (and (= 2 var4) (= 2 var8)))) (inv_main467 var5 var1 var6 var0 var4 var8 var2 var7 var3))))
(assert (forall ((var0 Int) (var1 Int) (var2 Int) (var3 Int) (var4 Int) (var5 Int) (var6 Int) (var7 Int) (var8 Int)) (or (not (and (inv_main459 var6 var1 var7 var0 1 var4 var2 var8 var3) (and (not (= var4 1)) (= 2 var5)))) (inv_main467 var6 var1 var7 var0 var5 var4 var2 var8 var3))))
(assert (forall ((var0 Int) (var1 Int) (var2 Int) (var3 Int) (var4 Int) (var5 Int) (var6 Int) (var7 Int) (var8 Int)) (or (not (and (inv_main459 var5 var1 var7 var0 var2 1 var3 var8 var4) (and (not (= var2 1)) (= 2 var6)))) (inv_main467 var5 var1 var7 var0 var2 var6 var3 var8 var4))))
(assert (forall ((var0 Int) (var1 Int) (var2 Int) (var3 Int) (var4 Int) (var5 Int) (var6 Int) (var7 Int) (var8 Int)) (or (not (and (inv_main459 var6 var1 var7 var0 var2 var5 var3 var8 var4) (and (not (= var5 1)) (not (= var2 1))))) (inv_main467 var6 var1 var7 var0 var2 var5 var3 var8 var4))))
(assert (forall ((var0 Int) (var1 Int) (var2 Int) (var3 Int) (var4 Int) (var5 Int) (var6 Int) (var7 Int) (var8 Int) (var9 Int)) (or (not (and (inv_main467 var6 var2 var8 var0 var3 var5 1 var9 var4) (and (= 2 var7) (= var1 2)))) (inv_main407 var6 var2 var8 var0 var1 var3 var5 var7 var9 var4))))
(assert (forall ((var0 Int) (var1 Int) (var2 Int) (var3 Int) (var4 Int) (var5 Int) (var6 Int) (var7 Int) (var8 Int) (var9 Int)) (or (not (and (inv_main467 var7 var2 var8 var0 var3 var6 var4 var9 var5) (and (not (= var4 1)) (= var1 2)))) (inv_main407 var7 var2 var8 var0 var1 var3 var6 var4 var9 var5))))
(assert (forall ((var0 Int) (var1 Int) (var2 Int) (var3 Int) (var4 Int) (var5 Int) (var6 Int) (var7 Int) (var8 Int) (var9 Int)) (or (not (and (inv_main407 var7 var2 0 var0 var3 var1 var6 var4 var9 var5) (= var8 0))) (inv_main123 var7 var2 var8 var0 var3 var1 var6 var4 var9 var5))))
(assert (forall ((var0 Int) (var1 Int) (var2 Int) (var3 Int) (var4 Int) (var5 Int) (var6 Int) (var7 Int) (var8 Int) (var9 Int)) (or (not (and (inv_main407 var7 var2 var8 0 var3 var1 var6 var4 var9 var5) (and (not (= var8 0)) (= var0 0)))) (inv_main123 var7 var2 var8 var0 var3 var1 var6 var4 var9 var5))))
(assert (forall ((var0 Int) (var1 Int) (var2 Int) (var3 Int) (var4 Int) (var5 Int) (var6 Int) (var7 Int) (var8 Int) (var9 Int)) (not (and (inv_main128 1 var2 0 var0 var3 var1 var8 var5 var9 var6 var7) (and (and (not (= var9 (+ var6 1))) (not (= var4 0))) (not (= var7 0)))))))
(check-sat)
